60   1770
164
160 133 92 135 48 104 136 132 120 136 156 121 47 137 30 108 122 146 156 148 108 59 57 59 151 134 132 54 108 125 144 46 100 109 78 33 137 154 116 87 106 95 44 109 62 30 154 32 60 136 149 36 117 126 110 136 119 151 153 1 2 57
1 3 193
1 4 101
1 5 256
1 6 139
1 7 188
1 8 264
1 9 150
1 10 154
1 11 193
1 12 152
1 13 175
1 14 117
1 15 104
1 16 252
1 17 271
1 18 262
1 19 11
1 20 100
1 21 24
1 22 106
1 23 281
1 24 197
1 25 290
1 26 136
1 27 160
1 28 235
1 29 130
1 30 228
1 31 235
1 32 17
1 33 87
1 34 152
1 35 170
1 36 150
1 37 55
1 38 136
1 39 117
1 40 155
1 41 180
1 42 198
1 43 120
1 44 64
1 45 53
1 46 35
1 47 155
1 48 35
1 49 195
1 50 260
1 51 247
1 52 213
1 53 127
1 54 146
1 55 89
1 56 65
1 57 243
1 58 56
1 59 34
1 60 97
2 3 52
2 4 268
2 5 258
2 6 69
2 7 52
2 8 263
2 9 145
2 10 183
2 11 137
2 12 262
2 13 123
2 14 171
2 15 117
2 16 252
2 17 136
2 18 13
2 19 152
2 20 35
2 21 31
2 22 251
2 23 54
2 24 242
2 25 244
2 26 30
2 27 269
2 28 195
2 29 177
2 30 32
2 31 136
2 32 44
2 33 201
2 34 288
2 35 113
2 36 164
2 37 13
2 38 82
2 39 158
2 40 123
2 41 91
2 42 267
2 43 285
2 44 250
2 45 91
2 46 230
2 47 13
2 48 233
2 49 62
2 50 57
2 51 208
2 52 175
2 53 185
2 54 88
2 55 35
2 56 100
2 57 258
2 58 67
2 59 10
2 60 299
3 4 24
3 5 66
3 6 87
3 7 212
3 8 16
3 9 41
3 10 81
3 11 238
3 12 20
3 13 15
3 14 277
3 15 151
3 16 266
3 17 114
3 18 190
3 19 240
3 20 138
3 21 45
3 22 88
3 23 201
3 24 97
3 25 106
3 26 50
3 27 175
3 28 147
3 29 26
3 30 23
3 31 19
3 32 191
3 33 250
3 34 254
3 35 11
3 36 164
3 37 252
3 38 59
3 39 201
3 40 122
3 41 235
3 42 13
3 43 130
3 44 197
3 45 197
3 46 105
3 47 101
3 48 200
3 49 192
3 50 120
3 51 141
3 52 211
3 53 134
3 54 270
3 55 146
3 56 23
3 57 166
3 58 198
3 59 144
3 60 154
4 5 129
4 6 125
4 7 292
4 8 117
4 9 243
4 10 35
4 11 34
4 12 143
4 13 137
4 14 282
4 15 268
4 16 160
4 17 87
4 18 42
4 19 252
4 20 184
4 21 186
4 22 69
4 23 121
4 24 15
4 25 287
4 26 99
4 27 297
4 28 222
4 29 65
4 30 165
4 31 83
4 32 96
4 33 131
4 34 211
4 35 185
4 36 243
4 37 38
4 38 231
4 39 216
4 40 223
4 41 161
4 42 196
4 43 251
4 44 69
4 45 205
4 46 64
4 47 128
4 48 20
4 49 232
4 50 172
4 51 24
4 52 216
4 53 245
4 54 300
4 55 239
4 56 82
4 57 33
4 58 236
4 59 168
4 60 252
5 6 25
5 7 59
5 8 144
5 9 76
5 10 246
5 11 154
5 12 257
5 13 143
5 14 119
5 15 186
5 16 99
5 17 123
5 18 99
5 19 190
5 20 280
5 21 124
5 22 172
5 23 116
5 24 201
5 25 140
5 26 250
5 27 202
5 28 108
5 29 137
5 30 34
5 31 100
5 32 54
5 33 192
5 34 266
5 35 27
5 36 115
5 37 61
5 38 279
5 39 29
5 40 176
5 41 158
5 42 180
5 43 249
5 44 39
5 45 29
5 46 120
5 47 113
5 48 45
5 49 241
5 50 131
5 51 285
5 52 108
5 53 220
5 54 99
5 55 72
5 56 220
5 57 141
5 58 82
5 59 269
5 60 171
6 7 23
6 8 216
6 9 42
6 10 110
6 11 285
6 12 84
6 13 144
6 14 280
6 15 278
6 16 36
6 17 36
6 18 118
6 19 165
6 20 276
6 21 289
6 22 201
6 23 30
6 24 104
6 25 69
6 26 76
6 27 11
6 28 178
6 29 246
6 30 51
6 31 179
6 32 281
6 33 262
6 34 233
6 35 155
6 36 245
6 37 169
6 38 28
6 39 298
6 40 60
6 41 55
6 42 152
6 43 40
6 44 174
6 45 241
6 46 257
6 47 236
6 48 150
6 49 229
6 50 255
6 51 108
6 52 131
6 53 245
6 54 125
6 55 297
6 56 288
6 57 155
6 58 20
6 59 27
6 60 275
7 8 284
7 9 37
7 10 81
7 11 213
7 12 263
7 13 233
7 14 259
7 15 117
7 16 247
7 17 39
7 18 178
7 19 105
7 20 129
7 21 197
7 22 108
7 23 266
7 24 124
7 25 257
7 26 17
7 27 152
7 28 23
7 29 191
7 30 91
7 31 180
7 32 203
7 33 15
7 34 137
7 35 121
7 36 200
7 37 220
7 38 18
7 39 89
7 40 53
7 41 106
7 42 188
7 43 45
7 44 194
7 45 180
7 46 209
7 47 19
7 48 229
7 49 102
7 50 45
7 51 190
7 52 252
7 53 158
7 54 12
7 55 57
7 56 273
7 57 20
7 58 124
7 59 79
7 60 90
8 9 167
8 10 84
8 11 215
8 12 131
8 13 47
8 14 272
8 15 70
8 16 106
8 17 214
8 18 163
8 19 256
8 20 145
8 21 278
8 22 267
8 23 23
8 24 283
8 25 280
8 26 70
8 27 209
8 28 41
8 29 54
8 30 60
8 31 99
8 32 117
8 33 154
8 34 115
8 35 168
8 36 241
8 37 161
8 38 154
8 39 143
8 40 295
8 41 267
8 42 279
8 43 217
8 44 95
8 45 212
8 46 51
8 47 176
8 48 243
8 49 137
8 50 69
8 51 273
8 52 62
8 53 76
8 54 157
8 55 145
8 56 66
8 57 285
8 58 36
8 59 107
8 60 171
9 10 273
9 11 50
9 12 175
9 13 247
9 14 260
9 15 226
9 16 162
9 17 46
9 18 69
9 19 232
9 20 78
9 21 291
9 22 109
9 23 152
9 24 174
9 25 77
9 26 245
9 27 260
9 28 244
9 29 82
9 30 201
9 31 83
9 32 150
9 33 52
9 34 297
9 35 121
9 36 70
9 37 263
9 38 195
9 39 282
9 40 132
9 41 43
9 42 268
9 43 43
9 44 92
9 45 146
9 46 78
9 47 110
9 48 287
9 49 300
9 50 53
9 51 114
9 52 40
9 53 219
9 54 192
9 55 281
9 56 140
9 57 94
9 58 77
9 59 205
9 60 231
10 11 114
10 12 169
10 13 287
10 14 179
10 15 252
10 16 185
10 17 180
10 18 107
10 19 117
10 20 201
10 21 142
10 22 209
10 23 164
10 24 156
10 25 66
10 26 154
10 27 123
10 28 279
10 29 214
10 30 238
10 31 196
10 32 79
10 33 231
10 34 52
10 35 76
10 36 208
10 37 248
10 38 193
10 39 66
10 40 109
10 41 52
10 42 247
10 43 129
10 44 268
10 45 88
10 46 287
10 47 177
10 48 181
10 49 37
10 50 161
10 51 286
10 52 82
10 53 89
10 54 199
10 55 178
10 56 297
10 57 43
10 58 265
10 59 244
10 60 37
11 12 226
11 13 232
11 14 234
11 15 141
11 16 42
11 17 196
11 18 76
11 19 48
11 20 89
11 21 168
11 22 224
11 23 221
11 24 16
11 25 295
11 26 291
11 27 221
11 28 59
11 29 262
11 30 97
11 31 244
11 32 230
11 33 191
11 34 151
11 35 272
11 36 73
11 37 282
11 38 212
11 39 205
11 40 267
11 41 224
11 42 229
11 43 274
11 44 199
11 45 13
11 46 107
11 47 31
11 48 159
11 49 218
11 50 109
11 51 260
11 52 267
11 53 37
11 54 41
11 55 288
11 56 299
11 57 69
11 58 246
11 59 255
11 60 189
12 13 45
12 14 25
12 15 58
12 16 256
12 17 112
12 18 152
12 19 134
12 20 22
12 21 102
12 22 219
12 23 136
12 24 291
12 25 299
12 26 69
12 27 92
12 28 139
12 29 155
12 30 178
12 31 103
12 32 53
12 33 289
12 34 122
12 35 284
12 36 14
12 37 260
12 38 87
12 39 285
12 40 277
12 41 96
12 42 56
12 43 62
12 44 12
12 45 267
12 46 254
12 47 151
12 48 177
12 49 81
12 50 249
12 51 39
12 52 280
12 53 245
12 54 148
12 55 175
12 56 12
12 57 48
12 58 270
12 59 205
12 60 258
13 14 92
13 15 84
13 16 214
13 17 250
13 18 98
13 19 146
13 20 17
13 21 36
13 22 204
13 23 244
13 24 130
13 25 125
13 26 282
13 27 40
13 28 98
13 29 148
13 30 63
13 31 84
13 32 285
13 33 117
13 34 292
13 35 64
13 36 227
13 37 214
13 38 54
13 39 214
13 40 223
13 41 256
13 42 19
13 43 120
13 44 264
13 45 152
13 46 66
13 47 204
13 48 184
13 49 191
13 50 44
13 51 239
13 52 271
13 53 66
13 54 246
13 55 176
13 56 170
13 57 106
13 58 217
13 59 228
13 60 241
14 15 207
14 16 186
14 17 274
14 18 189
14 19 244
14 20 119
14 21 95
14 22 196
14 23 147
14 24 143
14 25 167
14 26 94
14 27 18
14 28 64
14 29 238
14 30 292
14 31 111
14 32 210
14 33 48
14 34 101
14 35 216
14 36 238
14 37 121
14 38 158
14 39 123
14 40 80
14 41 64
14 42 290
14 43 90
14 44 178
14 45 80
14 46 204
14 47 133
14 48 194
14 49 157
14 50 183
14 51 48
14 52 77
14 53 229
14 54 255
14 55 188
14 56 131
14 57 287
14 58 170
14 59 128
14 60 202
15 16 273
15 17 80
15 18 189
15 19 246
15 20 41
15 21 40
15 22 118
15 23 294
15 24 12
15 25 69
15 26 37
15 27 267
15 28 251
15 29 24
15 30 242
15 31 103
15 32 145
15 33 271
15 34 113
15 35 267
15 36 42
15 37 213
15 38 161
15 39 146
15 40 75
15 41 45
15 42 294
15 43 170
15 44 206
15 45 270
15 46 128
15 47 209
15 48 77
15 49 261
15 50 101
15 51 119
15 52 111
15 53 296
15 54 155
15 55 97
15 56 73
15 57 69
15 58 258
15 59 52
15 60 87
16 17 96
16 18 17
16 19 207
16 20 119
16 21 208
16 22 290
16 23 144
16 24 167
16 25 21
16 26 178
16 27 35
16 28 121
16 29 233
16 30 108
16 31 242
16 32 134
16 33 224
16 34 288
16 35 125
16 36 290
16 37 220
16 38 25
16 39 280
16 40 215
16 41 263
16 42 277
16 43 108
16 44 131
16 45 210
16 46 56
16 47 164
16 48 80
16 49 39
16 50 233
16 51 78
16 52 64
16 53 227
16 54 32
16 55 278
16 56 55
16 57 170
16 58 30
16 59 48
16 60 201
17 18 177
17 19 45
17 20 109
17 21 203
17 22 12
17 23 153
17 24 50
17 25 236
17 26 87
17 27 126
17 28 256
17 29 12
17 30 145
17 31 158
17 32 96
17 33 168
17 34 76
17 35 102
17 36 14
17 37 289
17 38 210
17 39 192
17 40 215
17 41 20
17 42 221
17 43 73
17 44 69
17 45 209
17 46 293
17 47 47
17 48 281
17 49 213
17 50 215
17 51 269
17 52 15
17 53 117
17 54 258
17 55 289
17 56 195
17 57 169
17 58 44
17 59 60
17 60 240
18 19 97
18 20 39
18 21 230
18 22 235
18 23 168
18 24 160
18 25 296
18 26 100
18 27 131
18 28 66
18 29 76
18 30 37
18 31 43
18 32 248
18 33 62
18 34 290
18 35 108
18 36 44
18 37 127
18 38 142
18 39 158
18 40 20
18 41 114
18 42 247
18 43 151
18 44 158
18 45 231
18 46 105
18 47 31
18 48 264
18 49 59
18 50 211
18 51 23
18 52 32
18 53 16
18 54 238
18 55 228
18 56 57
18 57 129
18 58 51
18 59 164
18 60 230
19 20 76
19 21 114
19 22 264
19 23 11
19 24 213
19 25 207
19 26 152
19 27 70
19 28 272
19 29 155
19 30 251
19 31 141
19 32 125
19 33 240
19 34 223
19 35 24
19 36 281
19 37 151
19 38 52
19 39 77
19 40 90
19 41 140
19 42 242
19 43 287
19 44 273
19 45 127
19 46 283
19 47 172
19 48 240
19 49 68
19 50 104
19 51 36
19 52 204
19 53 212
19 54 162
19 55 260
19 56 274
19 57 185
19 58 151
19 59 58
19 60 26
20 21 296
20 22 299
20 23 43
20 24 31
20 25 163
20 26 80
20 27 155
20 28 147
20 29 177
20 30 36
20 31 279
20 32 232
20 33 10
20 34 75
20 35 140
20 36 164
20 37 90
20 38 169
20 39 80
20 40 14
20 41 192
20 42 185
20 43 265
20 44 170
20 45 181
20 46 275
20 47 296
20 48 198
20 49 142
20 50 156
20 51 47
20 52 165
20 53 257
20 54 180
20 55 72
20 56 159
20 57 156
20 58 68
20 59 146
20 60 178
21 22 268
21 23 240
21 24 278
21 25 248
21 26 261
21 27 29
21 28 229
21 29 156
21 30 196
21 31 245
21 32 26
21 33 53
21 34 113
21 35 24
21 36 181
21 37 73
21 38 107
21 39 171
21 40 106
21 41 214
21 42 222
21 43 82
21 44 96
21 45 198
21 46 42
21 47 242
21 48 140
21 49 46
21 50 256
21 51 16
21 52 138
21 53 164
21 54 67
21 55 82
21 56 231
21 57 210
21 58 223
21 59 89
21 60 46
22 23 65
22 24 20
22 25 84
22 26 93
22 27 141
22 28 200
22 29 30
22 30 59
22 31 261
22 32 179
22 33 155
22 34 157
22 35 139
22 36 137
22 37 52
22 38 205
22 39 53
22 40 216
22 41 275
22 42 261
22 43 91
22 44 180
22 45 194
22 46 242
22 47 73
22 48 206
22 49 197
22 50 34
22 51 190
22 52 129
22 53 286
22 54 98
22 55 131
22 56 275
22 57 105
22 58 63
22 59 154
22 60 180
23 24 180
23 25 46
23 26 93
23 27 150
23 28 253
23 29 40
23 30 224
23 31 295
23 32 61
23 33 122
23 34 224
23 35 188
23 36 154
23 37 81
23 38 272
23 39 152
23 40 82
23 41 72
23 42 223
23 43 189
23 44 210
23 45 228
23 46 29
23 47 31
23 48 220
23 49 171
23 50 17
23 51 28
23 52 44
23 53 40
23 54 211
23 55 177
23 56 154
23 57 88
23 58 78
23 59 272
23 60 97
24 25 211
24 26 164
24 27 19
24 28 97
24 29 202
24 30 123
24 31 52
24 32 293
24 33 253
24 34 224
24 35 247
24 36 267
24 37 152
24 38 81
24 39 208
24 40 104
24 41 210
24 42 54
24 43 243
24 44 179
24 45 165
24 46 219
24 47 104
24 48 111
24 49 166
24 50 110
24 51 47
24 52 283
24 53 208
24 54 180
24 55 192
24 56 137
24 57 36
24 58 165
24 59 145
24 60 17
25 26 231
25 27 241
25 28 14
25 29 85
25 30 259
25 31 32
25 32 79
25 33 296
25 34 136
25 35 142
25 36 274
25 37 200
25 38 75
25 39 31
25 40 34
25 41 266
25 42 159
25 43 284
25 44 204
25 45 93
25 46 133
25 47 103
25 48 240
25 49 58
25 50 257
25 51 274
25 52 49
25 53 79
25 54 61
25 55 127
25 56 151
25 57 84
25 58 215
25 59 257
25 60 66
26 27 103
26 28 190
26 29 165
26 30 203
26 31 58
26 32 23
26 33 117
26 34 92
26 35 91
26 36 144
26 37 292
26 38 167
26 39 227
26 40 55
26 41 117
26 42 290
26 43 75
26 44 149
26 45 170
26 46 124
26 47 216
26 48 117
26 49 272
26 50 172
26 51 198
26 52 229
26 53 276
26 54 275
26 55 60
26 56 276
26 57 280
26 58 22
26 59 226
26 60 224
27 28 105
27 29 281
27 30 225
27 31 29
27 32 238
27 33 37
27 34 29
27 35 15
27 36 18
27 37 103
27 38 136
27 39 116
27 40 51
27 41 278
27 42 213
27 43 192
27 44 45
27 45 149
27 46 142
27 47 79
27 48 43
27 49 284
27 50 129
27 51 102
27 52 82
27 53 205
27 54 108
27 55 207
27 56 25
27 57 94
27 58 50
27 59 273
27 60 135
28 29 204
28 30 297
28 31 167
28 32 258
28 33 226
28 34 17
28 35 86
28 36 67
28 37 272
28 38 42
28 39 79
28 40 175
28 41 101
28 42 186
28 43 130
28 44 216
28 45 29
28 46 47
28 47 105
28 48 224
28 49 199
28 50 207
28 51 136
28 52 183
28 53 115
28 54 117
28 55 242
28 56 251
28 57 208
28 58 64
28 59 298
28 60 251
29 30 271
29 31 98
29 32 125
29 33 23
29 34 109
29 35 267
29 36 23
29 37 167
29 38 245
29 39 186
29 40 127
29 41 155
29 42 293
29 43 102
29 44 12
29 45 43
29 46 183
29 47 290
29 48 167
29 49 74
29 50 152
29 51 43
29 52 218
29 53 48
29 54 294
29 55 251
29 56 134
29 57 132
29 58 85
29 59 30
29 60 299
30 31 20
30 32 136
30 33 54
30 34 250
30 35 221
30 36 143
30 37 121
30 38 170
30 39 192
30 40 186
30 41 185
30 42 144
30 43 169
30 44 209
30 45 217
30 46 16
30 47 11
30 48 22
30 49 265
30 50 272
30 51 16
30 52 100
30 53 125
30 54 34
30 55 39
30 56 24
30 57 158
30 58 184
30 59 92
30 60 102
31 32 192
31 33 149
31 34 23
31 35 109
31 36 124
31 37 172
31 38 271
31 39 192
31 40 37
31 41 211
31 42 105
31 43 221
31 44 100
31 45 231
31 46 283
31 47 170
31 48 159
31 49 233
31 50 35
31 51 132
31 52 92
31 53 276
31 54 65
31 55 82
31 56 22
31 57 205
31 58 144
31 59 98
31 60 90
32 33 247
32 34 235
32 35 167
32 36 115
32 37 233
32 38 28
32 39 242
32 40 193
32 41 52
32 42 93
32 43 27
32 44 172
32 45 160
32 46 196
32 47 227
32 48 202
32 49 216
32 50 39
32 51 261
32 52 65
32 53 183
32 54 174
32 55 130
32 56 58
32 57 256
32 58 166
32 59 23
32 60 261
33 34 208
33 35 110
33 36 107
33 37 230
33 38 114
33 39 256
33 40 72
33 41 195
33 42 210
33 43 108
33 44 110
33 45 224
33 46 239
33 47 288
33 48 87
33 49 135
33 50 50
33 51 35
33 52 205
33 53 182
33 54 276
33 55 195
33 56 294
33 57 68
33 58 297
33 59 122
33 60 278
34 35 161
34 36 282
34 37 224
34 38 76
34 39 140
34 40 104
34 41 234
34 42 219
34 43 243
34 44 234
34 45 57
34 46 20
34 47 171
34 48 183
34 49 120
34 50 125
34 51 130
34 52 111
34 53 279
34 54 249
34 55 52
34 56 262
34 57 295
34 58 94
34 59 224
34 60 130
35 36 221
35 37 251
35 38 144
35 39 120
35 40 18
35 41 98
35 42 298
35 43 191
35 44 127
35 45 84
35 46 167
35 47 233
35 48 264
35 49 215
35 50 242
35 51 224
35 52 105
35 53 64
35 54 123
35 55 214
35 56 73
35 57 84
35 58 289
35 59 279
35 60 247
36 37 58
36 38 66
36 39 199
36 40 297
36 41 10
36 42 137
36 43 215
36 44 19
36 45 172
36 46 239
36 47 252
36 48 11
36 49 156
36 50 46
36 51 243
36 52 231
36 53 60
36 54 36
36 55 57
36 56 286
36 57 148
36 58 71
36 59 142
36 60 60
37 38 254
37 39 191
37 40 216
37 41 213
37 42 97
37 43 59
37 44 209
37 45 172
37 46 202
37 47 20
37 48 106
37 49 231
37 50 81
37 51 222
37 52 248
37 53 55
37 54 295
37 55 150
37 56 146
37 57 68
37 58 92
37 59 198
37 60 200
38 39 173
38 40 159
38 41 79
38 42 65
38 43 245
38 44 196
38 45 206
38 46 62
38 47 39
38 48 90
38 49 101
38 50 25
38 51 202
38 52 241
38 53 162
38 54 248
38 55 59
38 56 290
38 57 200
38 58 232
38 59 60
38 60 188
39 40 191
39 41 233
39 42 128
39 43 160
39 44 111
39 45 177
39 46 62
39 47 32
39 48 159
39 49 134
39 50 226
39 51 19
39 52 78
39 53 44
39 54 190
39 55 236
39 56 67
39 57 74
39 58 49
39 59 276
39 60 172
40 41 171
40 42 34
40 43 241
40 44 292
40 45 277
40 46 106
40 47 230
40 48 195
40 49 242
40 50 71
40 51 80
40 52 201
40 53 101
40 54 283
40 55 277
40 56 78
40 57 127
40 58 277
40 59 166
40 60 86
41 42 208
41 43 204
41 44 300
41 45 211
41 46 95
41 47 277
41 48 57
41 49 80
41 50 74
41 51 290
41 52 275
41 53 128
41 54 72
41 55 98
41 56 80
41 57 46
41 58 137
41 59 25
41 60 68
42 43 215
42 44 71
42 45 105
42 46 104
42 47 259
42 48 76
42 49 79
42 50 128
42 51 106
42 52 232
42 53 213
42 54 246
42 55 275
42 56 78
42 57 248
42 58 67
42 59 297
42 60 235
43 44 240
43 45 213
43 46 25
43 47 209
43 48 212
43 49 87
43 50 192
43 51 260
43 52 21
43 53 133
43 54 166
43 55 248
43 56 16
43 57 65
43 58 156
43 59 204
43 60 295
44 45 53
44 46 113
44 47 57
44 48 132
44 49 199
44 50 189
44 51 224
44 52 185
44 53 200
44 54 285
44 55 186
44 56 170
44 57 70
44 58 285
44 59 81
44 60 181
45 46 39
45 47 219
45 48 64
45 49 294
45 50 208
45 51 264
45 52 220
45 53 249
45 54 226
45 55 91
45 56 223
45 57 16
45 58 138
45 59 164
45 60 32
46 47 66
46 48 217
46 49 11
46 50 252
46 51 212
46 52 95
46 53 128
46 54 44
46 55 152
46 56 129
46 57 52
46 58 245
46 59 81
46 60 45
47 48 13
47 49 95
47 50 76
47 51 267
47 52 238
47 53 76
47 54 189
47 55 140
47 56 82
47 57 216
47 58 250
47 59 195
47 60 75
48 49 166
48 50 285
48 51 154
48 52 178
48 53 245
48 54 237
48 55 158
48 56 174
48 57 270
48 58 194
48 59 194
48 60 252
49 50 161
49 51 124
49 52 170
49 53 105
49 54 68
49 55 267
49 56 175
49 57 274
49 58 59
49 59 235
49 60 54
50 51 143
50 52 203
50 53 127
50 54 69
50 55 44
50 56 172
50 57 10
50 58 226
50 59 264
50 60 224
51 52 182
51 53 20
51 54 134
51 55 200
51 56 144
51 57 99
51 58 269
51 59 252
51 60 155
52 53 222
52 54 184
52 55 285
52 56 134
52 57 182
52 58 266
52 59 234
52 60 98
53 54 170
53 55 271
53 56 209
53 57 26
53 58 297
53 59 279
53 60 52
54 55 106
54 56 230
54 57 100
54 58 163
54 59 148
54 60 144
55 56 238
55 57 280
55 58 121
55 59 46
55 60 10
56 57 107
56 58 299
56 59 198
56 60 174
57 58 296
57 59 175
57 60 164
58 59 196
58 60 105
59 60 99
